objective value:                                 4374
t_x420                                              1 	(obj:38)
t_x1                                                1 	(obj:372)
t_x2                                                1 	(obj:11)
t_x3                                                1 	(obj:96)
t_x4                                                1 	(obj:93)
t_x5                                                1 	(obj:34)
t_x6                                                1 	(obj:104)
t_x7                                                1 	(obj:138)
t_x8                                                1 	(obj:276)
t_x9                                                1 	(obj:42)
t_x10                                               1 	(obj:156)
t_x11                                               1 	(obj:84)
t_x12                                               1 	(obj:252)
t_x13                                               1 	(obj:74)
t_x14                                               1 	(obj:12)
t_x16                                               1 	(obj:356)
t_x18                                               1 	(obj:34)
t_x19                                               1 	(obj:48)
t_x20                                               1 	(obj:128)
t_x22                                               1 	(obj:116)
t_x24                                               1 	(obj:190)
t_x28                                               1 	(obj:295)
t_x29                                               1 	(obj:480)
t_x37                                               1 	(obj:244)
t_x38                                               1 	(obj:13)
t_x68                                               1 	(obj:208)
t_x74                                               1 	(obj:196)
t_x77                                               1 	(obj:180)
t_x79                                               1 	(obj:104)
t_x422                                             48 	(obj:0)
t_x433                                             20 	(obj:0)
t_x435                                              8 	(obj:0)
t_x436                                              5 	(obj:0)
t_x437                                              3 	(obj:0)
t_x439                                              6 	(obj:0)
t_x441                                              1 	(obj:0)
t_x445                                              2 	(obj:0)
t_x446                                              2 	(obj:0)
t_x449                                             13 	(obj:0)
t_x467                                              1 	(obj:0)
t_x468                                              6 	(obj:0)
t_x472                                              8 	(obj:0)
t_x524                                              5 	(obj:0)
t_x530                                              5 	(obj:0)
t_x532                                             27 	(obj:0)
t_x545                                              7 	(obj:0)
t_x578                                              5 	(obj:0)
t_x662                                              4 	(obj:0)
t_x683                                              3 	(obj:0)
t_x716                                              8 	(obj:0)
t_x744                                              9 	(obj:0)
t_x760                                              1 	(obj:0)
t_x797                                              2 	(obj:0)
t_x810                                              6 	(obj:0)
t_x815                                              7 	(obj:0)
t_x834                                              9 	(obj:0)
t_x840                                              1 	(obj:0)
t_x842                                             12 	(obj:0)
